1192
568
7314
3873
9145
8738
5939
9511
9182
2223
5044
7609
4575
1052
2715
8116
8278
3450
5915
2011
587
1435
4317
4914
7185
9817
1321
5547
7854
3895
2062
6590
1518
1738
4357
8227
9167
9299
2579
8826
7499
6441
866
5109
6308
6761
3260
4343
5141
4812
